% Logging successfully configured
%%%mzn-stat: initTime=0.004084321
%%%mzn-stat: objective=614
%%%mzn-stat: nodes=612
%%%mzn-stat: restarts=0
%%%mzn-stat: peakDepth=154
%%%mzn-stat: solveTime=0.005993292
%%%mzn-stat: variables=352
%%%mzn-stat: propagators=237
%%%mzn-stat: failures=61
%%%mzn-stat: propagations=4086
%%%mzn-stat: nogoods=61
%%%mzn-stat: numAtomicConstraintsPropagated=0
%%%mzn-stat: allDifferentNumber1TotalHallSetSize=144
%%%mzn-stat: allDifferentNumber1NumberOfConflicts=61
%%%mzn-stat: allDifferentNumber1MaxHallSetSize=18
%%%mzn-stat: allDifferentNumber1PropagationsTotal=761
%%%mzn-stat: allDifferentNumber1PropagationsThatFoundConflict=61
%%%mzn-stat: circuitNumber2PropagationsThatFoundConflict=0
%%%mzn-stat: circuitNumber2TotalFixedEdgesAtConflict=0
%%%mzn-stat: circuitNumber2NumberOfConflicts=0
%%%mzn-stat: circuitNumber2PropagationsThatPruned=33
%%%mzn-stat: circuitNumber2PropagationsTotal=449
%%%mzn-stat: AverageConflictSize=2.2950819672131146
%%%mzn-stat: NumUnitNogoodsLearned=0
%%%mzn-stat: AverageLearnedNogoodLength=2.278688524590164
%%%mzn-stat: AverageBacktrackAmount=0
%%%mzn-stat: AverageLbd=2.278688524590164
%%%mzn-stat: 2AutonomousSearchNumBackupCalled=138
%%%mzn-stat: 2AutonomousSearchNumPredicatesRemoved=0
%%%mzn-stat: 2AutonomousSearchNumCalls=139
%%%mzn-stat: 2AutonomousSearchNumPredicatesAdded=97
%%%mzn-stat: 2AutonomousSearchAverageSizeOfHeap=0.697841726618705
%%%mzn-stat: 2AutonomousSearchNumAssignedPredicatesEncountered=97
%%%mzn-stat-end
maxleg = 614;
succ = array1d(1..20,[4, 3, 7, 2, 6, 8, 5, 10, 1, 12, 9, 13, 20, 11, 16, 14, 19, 15, 18, 17]);
% time elapsed: 0.22 s
----------
%%%mzn-stat: initTime=0.004084321
%%%mzn-stat: objective=591
%%%mzn-stat: nodes=868
%%%mzn-stat: restarts=0
%%%mzn-stat: peakDepth=154
%%%mzn-stat: solveTime=0.007551374
%%%mzn-stat: variables=352
%%%mzn-stat: propagators=237
%%%mzn-stat: failures=79
%%%mzn-stat: propagations=5362
%%%mzn-stat: nogoods=79
%%%mzn-stat: numAtomicConstraintsPropagated=0
%%%mzn-stat: allDifferentNumber1TotalHallSetSize=187
%%%mzn-stat: allDifferentNumber1NumberOfConflicts=79
%%%mzn-stat: allDifferentNumber1MaxHallSetSize=18
%%%mzn-stat: allDifferentNumber1PropagationsTotal=937
%%%mzn-stat: allDifferentNumber1PropagationsThatFoundConflict=79
%%%mzn-stat: circuitNumber2PropagationsThatFoundConflict=0
%%%mzn-stat: circuitNumber2TotalFixedEdgesAtConflict=0
%%%mzn-stat: circuitNumber2NumberOfConflicts=0
%%%mzn-stat: circuitNumber2PropagationsThatPruned=42
%%%mzn-stat: circuitNumber2PropagationsTotal=566
%%%mzn-stat: AverageConflictSize=2.4430379746835444
%%%mzn-stat: NumUnitNogoodsLearned=0
%%%mzn-stat: AverageLearnedNogoodLength=2.430379746835443
%%%mzn-stat: AverageBacktrackAmount=0
%%%mzn-stat: AverageLbd=2.3797468354430378
%%%mzn-stat: 2AutonomousSearchNumBackupCalled=267
%%%mzn-stat: 2AutonomousSearchNumPredicatesRemoved=0
%%%mzn-stat: 2AutonomousSearchNumCalls=269
%%%mzn-stat: 2AutonomousSearchNumPredicatesAdded=142
%%%mzn-stat: 2AutonomousSearchAverageSizeOfHeap=0.8029739776951673
%%%mzn-stat: 2AutonomousSearchNumAssignedPredicatesEncountered=216
%%%mzn-stat-end
maxleg = 591;
succ = array1d(1..20,[4, 3, 7, 9, 6, 8, 5, 1, 10, 12, 2, 13, 20, 11, 16, 14, 19, 15, 18, 17]);
% time elapsed: 0.22 s
----------
%%%mzn-stat: initTime=0.004084321
%%%mzn-stat: objective=568
%%%mzn-stat: nodes=1244
%%%mzn-stat: restarts=0
%%%mzn-stat: peakDepth=154
%%%mzn-stat: solveTime=0.013058833
%%%mzn-stat: variables=352
%%%mzn-stat: propagators=237
%%%mzn-stat: failures=171
%%%mzn-stat: propagations=8165
%%%mzn-stat: nogoods=171
%%%mzn-stat: numAtomicConstraintsPropagated=0
%%%mzn-stat: allDifferentNumber1TotalHallSetSize=457
%%%mzn-stat: allDifferentNumber1NumberOfConflicts=166
%%%mzn-stat: allDifferentNumber1MaxHallSetSize=18
%%%mzn-stat: allDifferentNumber1PropagationsTotal=1448
%%%mzn-stat: allDifferentNumber1PropagationsThatFoundConflict=166
%%%mzn-stat: circuitNumber2PropagationsThatFoundConflict=4
%%%mzn-stat: circuitNumber2TotalFixedEdgesAtConflict=63
%%%mzn-stat: circuitNumber2NumberOfConflicts=4
%%%mzn-stat: circuitNumber2PropagationsThatPruned=76
%%%mzn-stat: circuitNumber2PropagationsTotal=818
%%%mzn-stat: AverageConflictSize=3.491228070175439
%%%mzn-stat: NumUnitNogoodsLearned=0
%%%mzn-stat: AverageLearnedNogoodLength=5.1988304093567255
%%%mzn-stat: AverageBacktrackAmount=0
%%%mzn-stat: AverageLbd=4.432748538011696
%%%mzn-stat: 2AutonomousSearchNumBackupCalled=399
%%%mzn-stat: 2AutonomousSearchNumPredicatesRemoved=0
%%%mzn-stat: 2AutonomousSearchNumCalls=402
%%%mzn-stat: 2AutonomousSearchNumPredicatesAdded=414
%%%mzn-stat: 2AutonomousSearchAverageSizeOfHeap=1.3855721393034826
%%%mzn-stat: 2AutonomousSearchNumAssignedPredicatesEncountered=557
%%%mzn-stat-end
maxleg = 568;
succ = array1d(1..20,[4, 3, 11, 9, 6, 7, 8, 1, 15, 12, 14, 13, 17, 18, 16, 2, 20, 19, 10, 5]);
% time elapsed: 0.22 s
----------
%%%mzn-stat: initTime=0.004084321
%%%mzn-stat: objective=499
%%%mzn-stat: nodes=1519
%%%mzn-stat: restarts=0
%%%mzn-stat: peakDepth=154
%%%mzn-stat: solveTime=0.016084477
%%%mzn-stat: variables=352
%%%mzn-stat: propagators=237
%%%mzn-stat: failures=196
%%%mzn-stat: propagations=9943
%%%mzn-stat: nogoods=196
%%%mzn-stat: numAtomicConstraintsPropagated=0
%%%mzn-stat: allDifferentNumber1TotalHallSetSize=541
%%%mzn-stat: allDifferentNumber1NumberOfConflicts=191
%%%mzn-stat: allDifferentNumber1MaxHallSetSize=18
%%%mzn-stat: allDifferentNumber1PropagationsTotal=1718
%%%mzn-stat: allDifferentNumber1PropagationsThatFoundConflict=191
%%%mzn-stat: circuitNumber2PropagationsThatFoundConflict=4
%%%mzn-stat: circuitNumber2TotalFixedEdgesAtConflict=63
%%%mzn-stat: circuitNumber2NumberOfConflicts=4
%%%mzn-stat: circuitNumber2PropagationsThatPruned=87
%%%mzn-stat: circuitNumber2PropagationsTotal=973
%%%mzn-stat: AverageConflictSize=3.5408163265306123
%%%mzn-stat: NumUnitNogoodsLearned=0
%%%mzn-stat: AverageLearnedNogoodLength=5.030612244897959
%%%mzn-stat: AverageBacktrackAmount=0
%%%mzn-stat: AverageLbd=4.321428571428571
%%%mzn-stat: 2AutonomousSearchNumBackupCalled=511
%%%mzn-stat: 2AutonomousSearchNumPredicatesRemoved=0
%%%mzn-stat: 2AutonomousSearchNumCalls=515
%%%mzn-stat: 2AutonomousSearchNumPredicatesAdded=465
%%%mzn-stat: 2AutonomousSearchAverageSizeOfHeap=1.7572815533980584
%%%mzn-stat: 2AutonomousSearchNumAssignedPredicatesEncountered=905
%%%mzn-stat-end
maxleg = 499;
succ = array1d(1..20,[8, 3, 11, 9, 6, 7, 12, 5, 1, 18, 4, 13, 20, 2, 16, 14, 19, 15, 10, 17]);
% time elapsed: 0.22 s
----------
%%%mzn-stat: initTime=0.004084321
%%%mzn-stat: objective=458
%%%mzn-stat: nodes=1645
%%%mzn-stat: restarts=0
%%%mzn-stat: peakDepth=154
%%%mzn-stat: solveTime=0.016531907
%%%mzn-stat: variables=352
%%%mzn-stat: propagators=237
%%%mzn-stat: failures=198
%%%mzn-stat: propagations=10396
%%%mzn-stat: nogoods=198
%%%mzn-stat: numAtomicConstraintsPropagated=0
%%%mzn-stat: allDifferentNumber1TotalHallSetSize=549
%%%mzn-stat: allDifferentNumber1NumberOfConflicts=193
%%%mzn-stat: allDifferentNumber1MaxHallSetSize=18
%%%mzn-stat: allDifferentNumber1PropagationsTotal=1746
%%%mzn-stat: allDifferentNumber1PropagationsThatFoundConflict=193
%%%mzn-stat: circuitNumber2PropagationsThatFoundConflict=4
%%%mzn-stat: circuitNumber2TotalFixedEdgesAtConflict=63
%%%mzn-stat: circuitNumber2NumberOfConflicts=4
%%%mzn-stat: circuitNumber2PropagationsThatPruned=88
%%%mzn-stat: circuitNumber2PropagationsTotal=989
%%%mzn-stat: AverageConflictSize=3.5555555555555554
%%%mzn-stat: NumUnitNogoodsLearned=0
%%%mzn-stat: AverageLearnedNogoodLength=5.03030303030303
%%%mzn-stat: AverageBacktrackAmount=0
%%%mzn-stat: AverageLbd=4.313131313131313
%%%mzn-stat: 2AutonomousSearchNumBackupCalled=620
%%%mzn-stat: 2AutonomousSearchNumPredicatesRemoved=0
%%%mzn-stat: 2AutonomousSearchNumCalls=625
%%%mzn-stat: 2AutonomousSearchNumPredicatesAdded=475
%%%mzn-stat: 2AutonomousSearchAverageSizeOfHeap=2.0096
%%%mzn-stat: 2AutonomousSearchNumAssignedPredicatesEncountered=1256
%%%mzn-stat-end
maxleg = 458;
succ = array1d(1..20,[8, 3, 11, 9, 6, 7, 12, 5, 1, 19, 4, 13, 20, 2, 16, 14, 10, 15, 18, 17]);
% time elapsed: 0.22 s
----------
%%%mzn-stat: initTime=0.004084321
%%%mzn-stat: objective=453
%%%mzn-stat: nodes=1956
%%%mzn-stat: restarts=0
%%%mzn-stat: peakDepth=154
%%%mzn-stat: solveTime=0.023975106
%%%mzn-stat: variables=352
%%%mzn-stat: propagators=237
%%%mzn-stat: failures=288
%%%mzn-stat: propagations=14034
%%%mzn-stat: nogoods=288
%%%mzn-stat: numAtomicConstraintsPropagated=0
%%%mzn-stat: allDifferentNumber1TotalHallSetSize=829
%%%mzn-stat: allDifferentNumber1NumberOfConflicts=271
%%%mzn-stat: allDifferentNumber1MaxHallSetSize=18
%%%mzn-stat: allDifferentNumber1PropagationsTotal=2247
%%%mzn-stat: allDifferentNumber1PropagationsThatFoundConflict=271
%%%mzn-stat: circuitNumber2PropagationsThatFoundConflict=15
%%%mzn-stat: circuitNumber2TotalFixedEdgesAtConflict=224
%%%mzn-stat: circuitNumber2NumberOfConflicts=15
%%%mzn-stat: circuitNumber2PropagationsThatPruned=126
%%%mzn-stat: circuitNumber2PropagationsTotal=1231
%%%mzn-stat: AverageConflictSize=4.381944444444445
%%%mzn-stat: NumUnitNogoodsLearned=0
%%%mzn-stat: AverageLearnedNogoodLength=6.791666666666667
%%%mzn-stat: AverageBacktrackAmount=0
%%%mzn-stat: AverageLbd=4.680555555555555
%%%mzn-stat: 2AutonomousSearchNumBackupCalled=717
%%%mzn-stat: 2AutonomousSearchNumPredicatesRemoved=0
%%%mzn-stat: 2AutonomousSearchNumCalls=723
%%%mzn-stat: 2AutonomousSearchNumPredicatesAdded=902
%%%mzn-stat: 2AutonomousSearchAverageSizeOfHeap=2.4771784232365146
%%%mzn-stat: 2AutonomousSearchNumAssignedPredicatesEncountered=1791
%%%mzn-stat-end
maxleg = 453;
succ = array1d(1..20,[9, 3, 11, 14, 6, 7, 12, 5, 4, 8, 15, 13, 20, 16, 18, 2, 1, 19, 10, 17]);
% time elapsed: 0.23 s
----------
%%%mzn-stat: initTime=0.004084321
%%%mzn-stat: objective=435
%%%mzn-stat: nodes=2085
%%%mzn-stat: restarts=0
%%%mzn-stat: peakDepth=154
%%%mzn-stat: solveTime=0.024927843
%%%mzn-stat: variables=352
%%%mzn-stat: propagators=237
%%%mzn-stat: failures=295
%%%mzn-stat: propagations=14742
%%%mzn-stat: nogoods=295
%%%mzn-stat: numAtomicConstraintsPropagated=0
%%%mzn-stat: allDifferentNumber1TotalHallSetSize=837
%%%mzn-stat: allDifferentNumber1NumberOfConflicts=275
%%%mzn-stat: allDifferentNumber1MaxHallSetSize=18
%%%mzn-stat: allDifferentNumber1PropagationsTotal=2305
%%%mzn-stat: allDifferentNumber1PropagationsThatFoundConflict=275
%%%mzn-stat: circuitNumber2PropagationsThatFoundConflict=18
%%%mzn-stat: circuitNumber2TotalFixedEdgesAtConflict=271
%%%mzn-stat: circuitNumber2NumberOfConflicts=18
%%%mzn-stat: circuitNumber2PropagationsThatPruned=131
%%%mzn-stat: circuitNumber2PropagationsTotal=1262
%%%mzn-stat: AverageConflictSize=4.386440677966101
%%%mzn-stat: NumUnitNogoodsLearned=0
%%%mzn-stat: AverageLearnedNogoodLength=6.888135593220339
%%%mzn-stat: AverageBacktrackAmount=0
%%%mzn-stat: AverageLbd=4.691525423728813
%%%mzn-stat: 2AutonomousSearchNumBackupCalled=818
%%%mzn-stat: 2AutonomousSearchNumPredicatesRemoved=0
%%%mzn-stat: 2AutonomousSearchNumCalls=825
%%%mzn-stat: 2AutonomousSearchNumPredicatesAdded=1115
%%%mzn-stat: 2AutonomousSearchAverageSizeOfHeap=2.8436363636363637
%%%mzn-stat: 2AutonomousSearchNumAssignedPredicatesEncountered=2346
%%%mzn-stat-end
maxleg = 435;
succ = array1d(1..20,[9, 3, 11, 14, 6, 7, 12, 13, 4, 8, 15, 17, 20, 16, 18, 2, 1, 19, 10, 5]);
% time elapsed: 0.23 s
----------
%%%mzn-stat: initTime=0.004084321
%%%mzn-stat: objective=409
%%%mzn-stat: nodes=4682
%%%mzn-stat: restarts=0
%%%mzn-stat: peakDepth=154
%%%mzn-stat: solveTime=0.170611574
%%%mzn-stat: variables=352
%%%mzn-stat: propagators=237
%%%mzn-stat: failures=2002
%%%mzn-stat: propagations=72530
%%%mzn-stat: nogoods=2002
%%%mzn-stat: numAtomicConstraintsPropagated=0
%%%mzn-stat: allDifferentNumber1TotalHallSetSize=11185
%%%mzn-stat: allDifferentNumber1NumberOfConflicts=1823
%%%mzn-stat: allDifferentNumber1MaxHallSetSize=18
%%%mzn-stat: allDifferentNumber1PropagationsTotal=9098
%%%mzn-stat: allDifferentNumber1PropagationsThatFoundConflict=1823
%%%mzn-stat: circuitNumber2PropagationsThatFoundConflict=125
%%%mzn-stat: circuitNumber2TotalFixedEdgesAtConflict=1996
%%%mzn-stat: circuitNumber2NumberOfConflicts=125
%%%mzn-stat: circuitNumber2PropagationsThatPruned=654
%%%mzn-stat: circuitNumber2PropagationsTotal=4099
%%%mzn-stat: AverageConflictSize=11.27022977022977
%%%mzn-stat: NumUnitNogoodsLearned=0
%%%mzn-stat: AverageLearnedNogoodLength=17.864635364635365
%%%mzn-stat: AverageBacktrackAmount=0
%%%mzn-stat: AverageLbd=5.904095904095904
%%%mzn-stat: 2AutonomousSearchNumBackupCalled=916
%%%mzn-stat: 2AutonomousSearchNumPredicatesRemoved=0
%%%mzn-stat: 2AutonomousSearchNumCalls=924
%%%mzn-stat: 2AutonomousSearchNumPredicatesAdded=1803
%%%mzn-stat: 2AutonomousSearchAverageSizeOfHeap=3.3906926406926408
%%%mzn-stat: 2AutonomousSearchNumAssignedPredicatesEncountered=3133
%%%mzn-stat-end
maxleg = 409;
succ = array1d(1..20,[17, 3, 11, 14, 6, 7, 8, 10, 4, 19, 15, 13, 20, 16, 18, 2, 12, 1, 9, 5]);
% time elapsed: 0.38 s
----------
==========
% time elapsed: 0.85 s
%%%mzn-stat: initTime=0.004084321
%%%mzn-stat: objective=409
%%%mzn-stat: nodes=10137
%%%mzn-stat: restarts=0
%%%mzn-stat: peakDepth=154
%%%mzn-stat: solveTime=0.645425503
%%%mzn-stat: variables=352
%%%mzn-stat: propagators=237
%%%mzn-stat: failures=6849
%%%mzn-stat: propagations=243699
%%%mzn-stat: nogoods=6849
%%%mzn-stat: numAtomicConstraintsPropagated=0
%%%mzn-stat: allDifferentNumber1TotalHallSetSize=15405
%%%mzn-stat: allDifferentNumber1NumberOfConflicts=3338
%%%mzn-stat: allDifferentNumber1MaxHallSetSize=18
%%%mzn-stat: allDifferentNumber1PropagationsTotal=21931
%%%mzn-stat: allDifferentNumber1PropagationsThatFoundConflict=3338
%%%mzn-stat: circuitNumber2PropagationsThatFoundConflict=1148
%%%mzn-stat: circuitNumber2TotalFixedEdgesAtConflict=17838
%%%mzn-stat: circuitNumber2NumberOfConflicts=1148
%%%mzn-stat: circuitNumber2PropagationsThatPruned=2324
%%%mzn-stat: circuitNumber2PropagationsTotal=10226
%%%mzn-stat: AverageConflictSize=7.40195648999854
%%%mzn-stat: NumUnitNogoodsLearned=1
%%%mzn-stat: AverageLearnedNogoodLength=23.661264418163235
%%%mzn-stat: AverageBacktrackAmount=0
%%%mzn-stat: AverageLbd=6.462257263834136
%%%mzn-stat: 2AutonomousSearchNumBackupCalled=916
%%%mzn-stat: 2AutonomousSearchNumPredicatesRemoved=0
%%%mzn-stat: 2AutonomousSearchNumCalls=924
%%%mzn-stat: 2AutonomousSearchNumPredicatesAdded=2605
%%%mzn-stat: 2AutonomousSearchAverageSizeOfHeap=3.3906926406926408
%%%mzn-stat: 2AutonomousSearchNumAssignedPredicatesEncountered=3133
%%%mzn-stat-end
